c solution:  -1 -2 -3 -4 -5 -6 -7 -8 9 -10 11 -12 -13 -14 -15 16 -17 -18 19 -20 -21 -22 -23 24 25 -26 27 -28 -29 -30 -31 -32 -33 -34 -35 -36 37 -38 -39 -40 -41 -42 -43 -44 -45 -46 -47 -48 -49 50 -51 52 -53 -54 -55 56 -57 -58 59 -60 -61 -62 -63 -64 -65 -66 67 -68 -69 -70 -71 -72 73 74 75 -76 -77 -78 -79 80 -81 -82 -83 -84 -85 -86 -87 -88 -89 90 -91 -92 -93 94 -95 -96 -97 -98 -99 100
p cnf 100 240
-52 -84 0
-52 -76 0
-52 -93 0
-52 -95 0
-84 -76 0
-84 -93 0
-84 -95 0
-76 -93 0
-76 -95 0
-93 -95 0
-16 -32 0
-16 -42 0
-16 -8 0
-16 -83 0
-32 -42 0
-32 -8 0
-32 -83 0
-42 -8 0
-42 -83 0
-8 -83 0
-27 -85 0
-27 -45 0
-27 -35 0
-27 -70 0
-85 -45 0
-85 -35 0
-85 -70 0
-45 -35 0
-45 -70 0
-35 -70 0
-9 -64 0
-9 -71 0
-9 -72 0
-9 -12 0
-64 -71 0
-64 -72 0
-64 -12 0
-71 -72 0
-71 -12 0
-72 -12 0
-73 -54 0
-73 -62 0
-73 -31 0
-73 -29 0
-54 -62 0
-54 -31 0
-54 -29 0
-62 -31 0
-62 -29 0
-31 -29 0
-56 -3 0
-56 -51 0
-56 -49 0
-56 -17 0
-3 -51 0
-3 -49 0
-3 -17 0
-51 -49 0
-51 -17 0
-49 -17 0
-67 -91 0
-67 -15 0
-67 -10 0
-67 -20 0
-91 -15 0
-91 -10 0
-91 -20 0
-15 -10 0
-15 -20 0
-10 -20 0
-80 -4 0
-80 -36 0
-80 -65 0
-80 -38 0
-4 -36 0
-4 -65 0
-4 -38 0
-36 -65 0
-36 -38 0
-65 -38 0
-19 -86 0
-19 -88 0
-19 -28 0
-19 -46 0
-86 -88 0
-86 -28 0
-86 -46 0
-88 -28 0
-88 -46 0
-28 -46 0
-94 -43 0
-94 -77 0
-94 -26 0
-94 -18 0
-43 -77 0
-43 -26 0
-43 -18 0
-77 -26 0
-77 -18 0
-26 -18 0
-90 -89 0
-90 -82 0
-90 -44 0
-90 -5 0
-89 -82 0
-89 -44 0
-89 -5 0
-82 -44 0
-82 -5 0
-44 -5 0
-37 -22 0
-37 -1 0
-37 -58 0
-37 -21 0
-22 -1 0
-22 -58 0
-22 -21 0
-1 -58 0
-1 -21 0
-58 -21 0
-59 -61 0
-59 -23 0
-59 -81 0
-59 -66 0
-61 -23 0
-61 -81 0
-61 -66 0
-23 -81 0
-23 -66 0
-81 -66 0
-74 -60 0
-74 -30 0
-74 -13 0
-74 -92 0
-60 -30 0
-60 -13 0
-60 -92 0
-30 -13 0
-30 -92 0
-13 -92 0
-24 -78 0
-24 -57 0
-24 -47 0
-24 -53 0
-78 -57 0
-78 -47 0
-78 -53 0
-57 -47 0
-57 -53 0
-47 -53 0
-11 -69 0
-11 -63 0
-11 -48 0
-11 -55 0
-69 -63 0
-69 -48 0
-69 -55 0
-63 -48 0
-63 -55 0
-48 -55 0
-75 -87 0
-75 -2 0
-75 -79 0
-75 -34 0
-87 -2 0
-87 -79 0
-87 -34 0
-2 -79 0
-2 -34 0
-79 -34 0
-50 -41 0
-50 -7 0
-50 -98 0
-50 -68 0
-41 -7 0
-41 -98 0
-41 -68 0
-7 -98 0
-7 -68 0
-98 -68 0
-100 -97 0
-100 -40 0
-100 -96 0
-100 -39 0
-97 -40 0
-97 -96 0
-97 -39 0
-40 -96 0
-40 -39 0
-96 -39 0
-25 -6 0
-25 -14 0
-25 -99 0
-25 -33 0
-6 -14 0
-6 -99 0
-6 -33 0
-14 -99 0
-14 -33 0
-99 -33 0
100 88 53 36 10 0
37 82 38 97 71 0
59 93 13 41 96 0
73 20 87 33 58 0
16 51 30 28 44 0
80 15 14 68 70 0
25 7 92 57 5 0
19 31 43 45 46 0
50 8 35 55 78 0
75 99 1 95 86 0
74 72 89 21 2 0
27 79 61 60 69 0
11 26 98 6 39 0
94 84 23 83 65 0
56 76 22 81 32 0
52 3 62 12 64 0
90 18 54 49 66 0
9 42 17 34 29 0
24 4 40 91 48 0
67 77 47 63 85 0
73 76 97 46 57 0
9 79 77 81 29 0
27 66 1 20 93 0
90 96 65 28 70 0
74 42 85 84 2 0
25 40 63 83 69 0
56 78 60 98 30 0
16 95 5 51 34 0
67 43 15 64 31 0
11 10 48 88 71 0
94 4 86 21 44 0
19 18 17 92 91 0
50 14 53 13 72 0
37 47 87 62 41 0
52 33 36 38 7 0
100 68 49 26 8 0
75 54 35 3 39 0
80 58 99 23 45 0
24 12 89 6 32 0
59 22 55 82 61 0
